SCIP version 5.0.0 [precision: 8 byte] [memory: block] [mode: optimized] [LP solver: NONE] [GitHash: 3bbd232]
Copyright (C) 2002-2017 Konrad-Zuse-Zentrum fuer Informationstechnik Berlin (ZIB)

External codes: 
  Readline EditLine w  GNU library for command line editing (gnu.org/s/readline)
  CppAD 20160000.1     Algorithmic Differentiation of C++ algorithms developed by B. Bell (www.coin-or.org/CppAD)
  ZLIB 1.2.5           General purpose compression library by J. Gailly and M. Adler (zlib.net)
  GMP 6.1.2            GNU Multiple Precision Arithmetic Library developed by T. Granlund (gmplib.org)

user parameter file <scip.set> not found - using default parameters

read problem <../../Split_data/output/breast/3/4_sample_breast.logreg>
============

File name	:	../../Split_data/output/breast/3/4_sample_breast.logreg
Problem name 	:	4_sample_breast
Number of data	:	155
Number of var	:	33
The given data has linear independence

[dim=1] time: 0.003974
[dim=2] time: 0.008083
[dim=3] time: 0.012524
[dim=4] time: 0.016452
[dim=5] time: 0.020287
[dim=6] time: 0.024028
[dim=7] time: 0.028029
[dim=8] time: 0.031603
[dim=9] time: 0.036318
[dim=10] time: 0.044112
[dim=11] time: 0.049701
[dim=12] time: 0.054911
[dim=13] time: 0.061899
[dim=14] time: 0.067505
[dim=15] time: 0.072185
[dim=16] time: 0.074819
[dim=17] Time of forward = 0.077494sec.
AIC: 117.353
k: 16

[dim=33] time: 0.0131
[dim=32] time: 0.021684
[dim=31] time: 0.032621
[dim=30] time: 0.04178
[dim=29] time: 0.05111
[dim=28] time: 0.061714
[dim=27] time: 0.070212
[dim=26] time: 0.080225
[dim=25] time: 0.097115
[dim=24] time: 0.114334
[dim=23] Time of backward = 0.124945sec.
AIC: 119.459
k: 24
